p edge 113 1855
e 1 5
e 1 6
e 1 7
e 1 9
e 1 12
e 1 13
e 1 16
e 1 18
e 1 20
e 1 22
e 1 23
e 1 25
e 1 28
e 1 29
e 1 30
e 1 31
e 1 36
e 1 51
e 1 57
e 1 58
e 1 60
e 1 63
e 1 76
e 1 77
e 1 79
e 1 80
e 1 81
e 1 92
e 1 93
e 1 94
e 1 96
e 1 100
e 1 101
e 1 102
e 1 109
e 2 3
e 2 6
e 2 7
e 2 15
e 2 17
e 2 21
e 2 25
e 2 31
e 2 32
e 2 38
e 2 42
e 2 43
e 2 49
e 2 51
e 2 56
e 2 65
e 2 67
e 2 68
e 2 69
e 2 70
e 2 73
e 2 78
e 2 79
e 2 83
e 2 87
e 2 92
e 2 95
e 2 96
e 2 101
e 2 105
e 2 108
e 2 111
e 3 7
e 3 9
e 3 12
e 3 16
e 3 18
e 3 19
e 3 21
e 3 25
e 3 28
e 3 31
e 3 35
e 3 36
e 3 42
e 3 43
e 3 45
e 3 46
e 3 48
e 3 52
e 3 54
e 3 62
e 3 65
e 3 71
e 3 74
e 3 75
e 3 80
e 3 81
e 3 83
e 3 85
e 3 88
e 3 92
e 3 95
e 3 96
e 3 98
e 3 101
e 3 102
e 3 107
e 3 108
e 3 113
e 4 9
e 4 15
e 4 22
e 4 23
e 4 25
e 4 26
e 4 27
e 4 29
e 4 31
e 4 32
e 4 33
e 4 35
e 4 37
e 4 38
e 4 40
e 4 54
e 4 56
e 4 59
e 4 60
e 4 69
e 4 71
e 4 72
e 4 73
e 4 74
e 4 79
e 4 80
e 4 81
e 4 82
e 4 83
e 4 85
e 4 88
e 4 97
e 4 98
e 4 102
e 4 106
e 4 108
e 4 109
e 5 7
e 5 8
e 5 10
e 5 13
e 5 18
e 5 26
e 5 29
e 5 32
e 5 33
e 5 37
e 5 39
e 5 46
e 5 49
e 5 55
e 5 58
e 5 61
e 5 65
e 5 68
e 5 73
e 5 74
e 5 76
e 5 77
e 5 78
e 5 80
e 5 82
e 5 86
e 5 88
e 5 92
e 5 93
e 5 98
e 5 105
e 5 109
e 5 110
e 6 12
e 6 14
e 6 17
e 6 18
e 6 22
e 6 24
e 6 28
e 6 35
e 6 37
e 6 38
e 6 41
e 6 42
e 6 47
e 6 48
e 6 51
e 6 52
e 6 53
e 6 55
e 6 58
e 6 61
e 6 63
e 6 73
e 6 74
e 6 75
e 6 76
e 6 78
e 6 85
e 6 86
e 6 89
e 6 91
e 6 95
e 6 96
e 6 104
e 6 108
e 6 109
e 6 113
e 7 16
e 7 18
e 7 24
e 7 26
e 7 32
e 7 35
e 7 36
e 7 38
e 7 41
e 7 42
e 7 43
e 7 46
e 7 47
e 7 53
e 7 55
e 7 56
e 7 57
e 7 59
e 7 62
e 7 66
e 7 69
e 7 74
e 7 75
e 7 80
e 7 85
e 7 88
e 7 90
e 7 91
e 7 93
e 7 96
e 7 99
e 7 101
e 7 112
e 8 11
e 8 19
e 8 22
e 8 23
e 8 26
e 8 30
e 8 32
e 8 35
e 8 38
e 8 39
e 8 47
e 8 49
e 8 52
e 8 53
e 8 58
e 8 71
e 8 80
e 8 83
e 8 85
e 8 88
e 8 91
e 8 93
e 8 99
e 8 100
e 8 110
e 9 14
e 9 16
e 9 23
e 9 26
e 9 35
e 9 36
e 9 38
e 9 49
e 9 51
e 9 52
e 9 53
e 9 55
e 9 65
e 9 71
e 9 73
e 9 74
e 9 78
e 9 81
e 9 85
e 9 86
e 9 87
e 9 93
e 9 94
e 9 98
e 9 103
e 9 111
e 10 13
e 10 14
e 10 17
e 10 20
e 10 23
e 10 29
e 10 30
e 10 39
e 10 45
e 10 46
e 10 47
e 10 49
e 10 50
e 10 56
e 10 63
e 10 70
e 10 78
e 10 88
e 10 90
e 10 91
e 10 92
e 10 93
e 10 99
e 10 101
e 10 104
e 10 105
e 10 110
e 10 113
e 11 13
e 11 16
e 11 25
e 11 27
e 11 28
e 11 31
e 11 35
e 11 37
e 11 40
e 11 44
e 11 51
e 11 52
e 11 54
e 11 55
e 11 64
e 11 67
e 11 68
e 11 69
e 11 71
e 11 72
e 11 81
e 11 84
e 11 85
e 11 86
e 11 89
e 11 95
e 11 97
e 11 103
e 11 106
e 11 107
e 11 109
e 11 110
e 11 111
e 11 112
e 12 14
e 12 20
e 12 21
e 12 23
e 12 28
e 12 32
e 12 36
e 12 37
e 12 39
e 12 42
e 12 43
e 12 49
e 12 50
e 12 57
e 12 59
e 12 63
e 12 69
e 12 71
e 12 73
e 12 81
e 12 86
e 12 87
e 12 88
e 12 89
e 12 104
e 12 108
e 12 109
e 12 110
e 13 19
e 13 20
e 13 21
e 13 23
e 13 24
e 13 26
e 13 27
e 13 31
e 13 34
e 13 35
e 13 36
e 13 39
e 13 42
e 13 44
e 13 47
e 13 49
e 13 52
e 13 55
e 13 56
e 13 57
e 13 59
e 13 65
e 13 68
e 13 69
e 13 76
e 13 80
e 13 82
e 13 83
e 13 89
e 13 96
e 13 106
e 13 107
e 13 109
e 13 113
e 14 16
e 14 19
e 14 20
e 14 21
e 14 29
e 14 33
e 14 34
e 14 37
e 14 38
e 14 39
e 14 42
e 14 45
e 14 47
e 14 49
e 14 53
e 14 56
e 14 60
e 14 63
e 14 64
e 14 65
e 14 68
e 14 70
e 14 71
e 14 75
e 14 83
e 14 89
e 14 92
e 14 93
e 14 95
e 14 96
e 14 98
e 14 101
e 14 111
e 14 112
e 15 17
e 15 18
e 15 19
e 15 21
e 15 22
e 15 23
e 15 26
e 15 31
e 15 37
e 15 40
e 15 41
e 15 42
e 15 47
e 15 48
e 15 53
e 15 58
e 15 60
e 15 63
e 15 65
e 15 75
e 15 78
e 15 80
e 15 84
e 15 93
e 15 97
e 15 102
e 15 106
e 15 107
e 15 110
e 15 111
e 16 18
e 16 19
e 16 26
e 16 29
e 16 33
e 16 34
e 16 35
e 16 36
e 16 40
e 16 42
e 16 44
e 16 48
e 16 49
e 16 50
e 16 58
e 16 60
e 16 65
e 16 66
e 16 72
e 16 77
e 16 82
e 16 85
e 16 87
e 16 91
e 16 96
e 16 97
e 16 106
e 16 108
e 16 111
e 16 113
e 17 20
e 17 22
e 17 25
e 17 32
e 17 44
e 17 45
e 17 46
e 17 47
e 17 48
e 17 51
e 17 57
e 17 60
e 17 61
e 17 63
e 17 65
e 17 67
e 17 72
e 17 73
e 17 79
e 17 86
e 17 88
e 17 90
e 17 94
e 17 100
e 17 113
e 18 19
e 18 24
e 18 27
e 18 37
e 18 44
e 18 50
e 18 51
e 18 53
e 18 59
e 18 62
e 18 67
e 18 68
e 18 70
e 18 74
e 18 75
e 18 78
e 18 80
e 18 83
e 18 86
e 18 92
e 18 93
e 18 94
e 18 100
e 18 103
e 18 104
e 18 107
e 18 110
e 18 111
e 19 20
e 19 21
e 19 26
e 19 27
e 19 32
e 19 33
e 19 34
e 19 39
e 19 41
e 19 45
e 19 55
e 19 57
e 19 58
e 19 59
e 19 67
e 19 71
e 19 74
e 19 75
e 19 76
e 19 77
e 19 79
e 19 81
e 19 83
e 19 85
e 19 86
e 19 88
e 19 90
e 19 97
e 19 106
e 19 108
e 20 27
e 20 29
e 20 31
e 20 32
e 20 33
e 20 35
e 20 38
e 20 40
e 20 45
e 20 48
e 20 52
e 20 53
e 20 55
e 20 66
e 20 69
e 20 82
e 20 83
e 20 86
e 20 90
e 20 92
e 20 93
e 20 94
e 20 95
e 20 99
e 20 106
e 20 107
e 20 109
e 20 110
e 20 113
e 21 27
e 21 32
e 21 33
e 21 34
e 21 35
e 21 37
e 21 38
e 21 39
e 21 41
e 21 46
e 21 48
e 21 53
e 21 58
e 21 59
e 21 61
e 21 62
e 21 66
e 21 73
e 21 74
e 21 78
e 21 79
e 21 84
e 21 88
e 21 91
e 21 97
e 21 99
e 21 100
e 21 101
e 21 108
e 21 110
e 21 112
e 21 113
e 22 25
e 22 32
e 22 33
e 22 36
e 22 39
e 22 41
e 22 54
e 22 56
e 22 64
e 22 67
e 22 69
e 22 73
e 22 75
e 22 76
e 22 81
e 22 82
e 22 85
e 22 91
e 22 94
e 22 100
e 22 102
e 22 105
e 23 24
e 23 29
e 23 33
e 23 35
e 23 42
e 23 44
e 23 46
e 23 48
e 23 53
e 23 54
e 23 55
e 23 56
e 23 61
e 23 63
e 23 64
e 23 65
e 23 66
e 23 67
e 23 72
e 23 74
e 23 75
e 23 80
e 23 83
e 23 84
e 23 89
e 23 91
e 23 92
e 23 95
e 23 100
e 23 110
e 23 111
e 23 112
e 24 26
e 24 28
e 24 30
e 24 33
e 24 35
e 24 37
e 24 41
e 24 45
e 24 55
e 24 58
e 24 59
e 24 61
e 24 62
e 24 72
e 24 76
e 24 79
e 24 85
e 24 86
e 24 87
e 24 90
e 24 91
e 24 92
e 24 97
e 24 100
e 24 104
e 24 110
e 24 111
e 25 30
e 25 31
e 25 39
e 25 41
e 25 45
e 25 46
e 25 47
e 25 48
e 25 49
e 25 58
e 25 59
e 25 60
e 25 62
e 25 71
e 25 75
e 25 79
e 25 84
e 25 88
e 25 91
e 25 94
e 25 101
e 25 102
e 25 107
e 25 110
e 26 30
e 26 31
e 26 35
e 26 36
e 26 37
e 26 41
e 26 43
e 26 49
e 26 51
e 26 54
e 26 55
e 26 58
e 26 59
e 26 64
e 26 65
e 26 68
e 26 73
e 26 81
e 26 85
e 26 88
e 26 94
e 26 95
e 26 97
e 26 98
e 26 104
e 26 111
e 27 28
e 27 30
e 27 35
e 27 40
e 27 49
e 27 56
e 27 61
e 27 62
e 27 66
e 27 71
e 27 73
e 27 75
e 27 77
e 27 79
e 27 89
e 27 90
e 27 104
e 27 105
e 27 110
e 27 111
e 27 113
e 28 29
e 28 40
e 28 44
e 28 46
e 28 50
e 28 64
e 28 66
e 28 68
e 28 70
e 28 71
e 28 76
e 28 77
e 28 82
e 28 83
e 28 87
e 28 88
e 28 100
e 28 104
e 28 106
e 28 107
e 28 108
e 28 110
e 28 113
e 29 32
e 29 34
e 29 35
e 29 46
e 29 50
e 29 51
e 29 52
e 29 55
e 29 57
e 29 64
e 29 65
e 29 72
e 29 73
e 29 74
e 29 76
e 29 78
e 29 79
e 29 82
e 29 87
e 29 89
e 29 90
e 29 91
e 29 92
e 29 97
e 29 100
e 29 102
e 29 103
e 30 31
e 30 35
e 30 41
e 30 43
e 30 45
e 30 46
e 30 47
e 30 64
e 30 69
e 30 70
e 30 71
e 30 74
e 30 79
e 30 80
e 30 88
e 30 92
e 30 94
e 30 95
e 30 100
e 30 104
e 30 109
e 30 112
e 31 35
e 31 40
e 31 47
e 31 57
e 31 60
e 31 63
e 31 71
e 31 74
e 31 78
e 31 84
e 31 85
e 31 88
e 31 92
e 31 108
e 31 110
e 31 112
e 31 113
e 32 34
e 32 39
e 32 42
e 32 45
e 32 46
e 32 55
e 32 56
e 32 60
e 32 74
e 32 75
e 32 79
e 32 80
e 32 85
e 32 88
e 32 89
e 32 92
e 32 95
e 32 97
e 32 101
e 32 104
e 32 106
e 32 109
e 33 34
e 33 36
e 33 38
e 33 43
e 33 48
e 33 57
e 33 58
e 33 61
e 33 63
e 33 65
e 33 66
e 33 68
e 33 70
e 33 73
e 33 74
e 33 77
e 33 79
e 33 82
e 33 92
e 33 95
e 33 98
e 33 100
e 33 103
e 33 104
e 33 105
e 33 108
e 33 109
e 33 111
e 33 113
e 34 38
e 34 39
e 34 44
e 34 53
e 34 56
e 34 73
e 34 77
e 34 78
e 34 80
e 34 83
e 34 87
e 34 88
e 34 96
e 34 101
e 34 108
e 35 38
e 35 39
e 35 40
e 35 41
e 35 48
e 35 51
e 35 53
e 35 57
e 35 61
e 35 63
e 35 67
e 35 68
e 35 70
e 35 74
e 35 75
e 35 78
e 35 80
e 35 85
e 35 90
e 35 92
e 35 96
e 35 98
e 35 99
e 35 102
e 35 103
e 35 104
e 35 105
e 35 107
e 35 109
e 35 113
e 36 37
e 36 41
e 36 42
e 36 45
e 36 46
e 36 50
e 36 59
e 36 60
e 36 63
e 36 68
e 36 69
e 36 72
e 36 77
e 36 80
e 36 92
e 36 96
e 36 98
e 36 103
e 36 104
e 36 112
e 37 42
e 37 43
e 37 44
e 37 46
e 37 54
e 37 61
e 37 64
e 37 68
e 37 73
e 37 77
e 37 78
e 37 79
e 37 81
e 37 82
e 37 85
e 37 86
e 37 88
e 37 89
e 37 91
e 37 97
e 37 98
e 37 105
e 37 107
e 37 109
e 37 110
e 37 111
e 37 112
e 38 41
e 38 43
e 38 44
e 38 49
e 38 50
e 38 54
e 38 57
e 38 59
e 38 62
e 38 65
e 38 69
e 38 74
e 38 80
e 38 82
e 38 83
e 38 85
e 38 87
e 38 88
e 38 91
e 38 93
e 38 94
e 38 98
e 38 101
e 38 102
e 38 105
e 38 109
e 38 113
e 39 40
e 39 45
e 39 47
e 39 49
e 39 50
e 39 53
e 39 65
e 39 71
e 39 75
e 39 78
e 39 81
e 39 82
e 39 84
e 39 86
e 39 88
e 39 100
e 39 106
e 39 108
e 39 109
e 39 113
e 40 44
e 40 51
e 40 52
e 40 54
e 40 58
e 40 63
e 40 73
e 40 82
e 40 89
e 40 92
e 40 93
e 40 98
e 40 103
e 40 107
e 40 111
e 41 47
e 41 49
e 41 51
e 41 53
e 41 54
e 41 57
e 41 61
e 41 63
e 41 65
e 41 66
e 41 67
e 41 71
e 41 72
e 41 77
e 41 80
e 41 82
e 41 86
e 41 89
e 41 91
e 41 96
e 41 100
e 41 104
e 41 109
e 41 110
e 41 112
e 42 48
e 42 51
e 42 52
e 42 54
e 42 61
e 42 64
e 42 65
e 42 70
e 42 72
e 42 75
e 42 79
e 42 85
e 42 90
e 42 93
e 42 99
e 42 100
e 42 109
e 42 110
e 43 44
e 43 48
e 43 49
e 43 60
e 43 61
e 43 62
e 43 64
e 43 66
e 43 70
e 43 71
e 43 75
e 43 79
e 43 80
e 43 83
e 43 90
e 43 95
e 43 103
e 43 106
e 43 111
e 44 51
e 44 52
e 44 55
e 44 56
e 44 62
e 44 63
e 44 65
e 44 72
e 44 74
e 44 76
e 44 77
e 44 82
e 44 85
e 44 86
e 44 89
e 44 96
e 44 100
e 44 101
e 44 103
e 44 104
e 44 105
e 44 106
e 44 110
e 44 112
e 44 113
e 45 59
e 45 76
e 45 78
e 45 80
e 45 83
e 45 86
e 45 87
e 45 88
e 45 92
e 45 94
e 45 98
e 45 102
e 45 105
e 45 106
e 45 111
e 46 47
e 46 50
e 46 51
e 46 55
e 46 57
e 46 60
e 46 61
e 46 64
e 46 75
e 46 79
e 46 80
e 46 82
e 46 83
e 46 104
e 46 105
e 46 110
e 47 63
e 47 65
e 47 72
e 47 73
e 47 74
e 47 96
e 47 101
e 47 102
e 47 103
e 47 111
e 48 57
e 48 62
e 48 68
e 48 73
e 48 78
e 48 81
e 48 86
e 48 89
e 48 90
e 48 102
e 48 107
e 48 109
e 49 53
e 49 64
e 49 65
e 49 67
e 49 68
e 49 69
e 49 74
e 49 81
e 49 83
e 49 85
e 49 86
e 49 87
e 49 88
e 49 89
e 49 98
e 49 101
e 49 110
e 49 111
e 50 51
e 50 55
e 50 60
e 50 61
e 50 65
e 50 76
e 50 80
e 50 91
e 50 95
e 50 99
e 50 101
e 50 106
e 50 108
e 50 109
e 50 110
e 51 58
e 51 59
e 51 73
e 51 74
e 51 76
e 51 83
e 51 86
e 51 88
e 51 90
e 51 96
e 51 97
e 51 99
e 51 101
e 51 103
e 51 105
e 51 113
e 52 53
e 52 56
e 52 58
e 52 60
e 52 61
e 52 64
e 52 74
e 52 75
e 52 81
e 52 85
e 52 86
e 52 94
e 52 96
e 52 97
e 52 99
e 52 100
e 52 102
e 52 103
e 52 104
e 52 105
e 52 108
e 52 109
e 52 110
e 52 111
e 52 113
e 53 55
e 53 58
e 53 69
e 53 71
e 53 73
e 53 80
e 53 83
e 53 85
e 53 91
e 53 93
e 53 99
e 53 100
e 53 107
e 54 55
e 54 60
e 54 61
e 54 64
e 54 71
e 54 76
e 54 77
e 54 79
e 54 80
e 54 85
e 54 88
e 54 93
e 54 97
e 54 98
e 54 99
e 54 101
e 54 102
e 54 104
e 54 106
e 54 111
e 54 112
e 55 57
e 55 58
e 55 62
e 55 69
e 55 79
e 55 82
e 55 83
e 55 84
e 55 86
e 55 87
e 55 97
e 55 107
e 55 108
e 55 110
e 55 112
e 56 59
e 56 62
e 56 65
e 56 66
e 56 68
e 56 71
e 56 73
e 56 76
e 56 86
e 56 87
e 56 93
e 56 96
e 56 97
e 56 100
e 56 104
e 56 106
e 56 111
e 56 112
e 57 62
e 57 69
e 57 72
e 57 81
e 57 85
e 57 86
e 57 90
e 57 93
e 57 100
e 57 101
e 57 103
e 57 104
e 57 106
e 57 107
e 57 108
e 57 110
e 58 60
e 58 63
e 58 64
e 58 65
e 58 66
e 58 69
e 58 72
e 58 76
e 58 78
e 58 79
e 58 80
e 58 81
e 58 82
e 58 83
e 58 84
e 58 92
e 58 94
e 58 96
e 58 98
e 58 110
e 58 112
e 59 64
e 59 66
e 59 68
e 59 71
e 59 73
e 59 76
e 59 79
e 59 80
e 59 82
e 59 90
e 59 93
e 59 97
e 59 105
e 59 112
e 59 113
e 60 62
e 60 63
e 60 64
e 60 65
e 60 67
e 60 70
e 60 80
e 60 94
e 60 95
e 60 98
e 60 107
e 60 109
e 60 113
e 61 62
e 61 64
e 61 66
e 61 68
e 61 73
e 61 76
e 61 78
e 61 82
e 61 84
e 61 86
e 61 87
e 61 89
e 61 90
e 61 92
e 61 96
e 61 98
e 61 99
e 61 101
e 61 105
e 61 106
e 61 113
e 62 67
e 62 69
e 62 78
e 62 80
e 62 81
e 62 84
e 62 89
e 62 92
e 62 96
e 63 74
e 63 76
e 63 78
e 63 83
e 63 85
e 63 86
e 63 88
e 63 90
e 63 91
e 63 92
e 63 98
e 63 101
e 63 103
e 63 104
e 63 105
e 63 107
e 63 110
e 63 111
e 63 112
e 64 72
e 64 77
e 64 78
e 64 84
e 64 85
e 64 91
e 64 93
e 64 99
e 64 101
e 64 104
e 64 113
e 65 71
e 65 72
e 65 78
e 65 83
e 65 86
e 65 91
e 65 101
e 65 102
e 65 103
e 65 104
e 65 105
e 65 106
e 66 71
e 66 74
e 66 75
e 66 76
e 66 77
e 66 78
e 66 80
e 66 82
e 66 86
e 66 94
e 66 103
e 66 104
e 66 106
e 66 107
e 66 108
e 66 111
e 67 70
e 67 71
e 67 75
e 67 77
e 67 78
e 67 82
e 67 88
e 67 95
e 67 96
e 67 105
e 67 108
e 67 111
e 68 70
e 68 72
e 68 76
e 68 77
e 68 78
e 68 83
e 68 84
e 68 87
e 68 88
e 68 92
e 68 93
e 68 97
e 68 99
e 68 100
e 68 107
e 69 76
e 69 82
e 69 88
e 69 95
e 69 98
e 69 99
e 69 102
e 69 103
e 69 106
e 69 111
e 70 71
e 70 73
e 70 77
e 70 78
e 70 81
e 70 87
e 70 92
e 70 95
e 70 98
e 70 100
e 70 111
e 71 73
e 71 76
e 71 85
e 71 89
e 71 93
e 71 96
e 71 97
e 71 99
e 71 100
e 71 101
e 71 109
e 72 75
e 72 83
e 72 84
e 72 85
e 72 86
e 72 87
e 72 88
e 72 93
e 72 97
e 72 101
e 72 104
e 72 106
e 72 110
e 73 74
e 73 75
e 73 77
e 73 83
e 73 90
e 73 91
e 73 92
e 73 96
e 73 101
e 73 104
e 73 105
e 73 113
e 74 79
e 74 83
e 74 88
e 74 91
e 74 97
e 74 105
e 74 106
e 75 78
e 75 83
e 75 85
e 75 94
e 75 98
e 75 101
e 75 103
e 75 104
e 75 106
e 75 109
e 75 111
e 76 81
e 76 82
e 76 87
e 76 90
e 76 91
e 76 94
e 76 97
e 76 98
e 76 99
e 76 102
e 76 107
e 76 109
e 76 110
e 77 79
e 77 89
e 77 94
e 77 95
e 77 96
e 77 97
e 77 100
e 77 101
e 77 105
e 77 106
e 77 107
e 77 108
e 77 110
e 77 111
e 78 79
e 78 84
e 78 94
e 78 99
e 78 100
e 78 101
e 78 102
e 78 104
e 78 105
e 78 106
e 78 110
e 78 112
e 79 80
e 79 87
e 79 94
e 79 99
e 79 102
e 79 103
e 79 106
e 79 110
e 79 112
e 80 82
e 80 87
e 80 89
e 80 94
e 80 97
e 80 99
e 80 105
e 80 108
e 80 111
e 80 112
e 81 84
e 81 87
e 81 89
e 81 90
e 81 91
e 81 98
e 81 100
e 81 104
e 81 105
e 81 109
e 81 113
e 82 86
e 82 90
e 82 94
e 82 95
e 82 98
e 82 99
e 82 104
e 82 105
e 82 106
e 82 107
e 82 108
e 83 87
e 83 95
e 83 96
e 83 104
e 83 108
e 84 85
e 84 88
e 84 91
e 84 94
e 84 98
e 84 101
e 84 102
e 84 112
e 85 86
e 85 88
e 85 89
e 85 91
e 85 95
e 85 103
e 85 104
e 86 90
e 86 91
e 86 96
e 86 97
e 86 98
e 86 99
e 86 101
e 86 102
e 86 105
e 86 113
e 87 88
e 87 90
e 87 92
e 87 94
e 87 99
e 87 104
e 87 106
e 87 111
e 88 89
e 88 92
e 88 95
e 88 96
e 88 97
e 88 101
e 88 106
e 88 111
e 89 94
e 89 104
e 89 105
e 89 110
e 89 111
e 90 91
e 90 94
e 90 96
e 90 103
e 90 105
e 90 109
e 90 111
e 90 112
e 91 94
e 91 96
e 91 97
e 91 98
e 91 99
e 91 104
e 91 106
e 91 107
e 91 108
e 91 109
e 91 110
e 91 111
e 92 100
e 92 107
e 92 110
e 92 113
e 93 100
e 93 102
e 93 107
e 93 109
e 93 113
e 94 97
e 94 102
e 94 108
e 94 110
e 94 113
e 95 99
e 95 100
e 95 101
e 95 108
e 95 112
e 96 97
e 96 98
e 96 106
e 96 109
e 97 99
e 97 103
e 98 104
e 98 110
e 98 113
e 99 101
e 99 102
e 99 111
e 99 113
e 100 102
e 100 108
e 100 110
e 101 102
e 101 103
e 101 106
e 101 107
e 101 108
e 101 109
e 101 110
e 102 103
e 102 108
e 102 112
e 103 111
e 103 112
e 104 105
e 104 106
e 104 110
e 104 113
e 105 106
e 105 107
e 105 108
e 105 112
e 105 113
e 106 108
e 106 111
e 106 113
e 107 108
e 107 110
e 107 111
e 108 109
e 109 112
e 112 113
